p cnf 70 850
1 2 3 4 5 6 7 0
8 9 10 11 12 13 14 0
15 16 17 18 19 20 21 0
22 23 24 25 26 27 28 0
29 30 31 32 33 34 35 0
36 37 38 39 40 41 42 0
43 44 45 46 47 48 49 0
50 51 52 53 54 55 56 0
57 58 59 60 61 62 63 0
64 65 66 67 68 69 70 0
-1 -2 0
-1 -3 0
-1 -4 0
-1 -5 0
-1 -6 0
-1 -7 0
-2 -3 0
-2 -4 0
-2 -5 0
-2 -6 0
-2 -7 0
-3 -4 0
-3 -5 0
-3 -6 0
-3 -7 0
-4 -5 0
-4 -6 0
-4 -7 0
-5 -6 0
-5 -7 0
-6 -7 0
-8 -9 0
-8 -10 0
-8 -11 0
-8 -12 0
-8 -13 0
-8 -14 0
-9 -10 0
-9 -11 0
-9 -12 0
-9 -13 0
-9 -14 0
-10 -11 0
-10 -12 0
-10 -13 0
-10 -14 0
-11 -12 0
-11 -13 0
-11 -14 0
-12 -13 0
-12 -14 0
-13 -14 0
-15 -16 0
-15 -17 0
-15 -18 0
-15 -19 0
-15 -20 0
-15 -21 0
-16 -17 0
-16 -18 0
-16 -19 0
-16 -20 0
-16 -21 0
-17 -18 0
-17 -19 0
-17 -20 0
-17 -21 0
-18 -19 0
-18 -20 0
-18 -21 0
-19 -20 0
-19 -21 0
-20 -21 0
-22 -23 0
-22 -24 0
-22 -25 0
-22 -26 0
-22 -27 0
-22 -28 0
-23 -24 0
-23 -25 0
-23 -26 0
-23 -27 0
-23 -28 0
-24 -25 0
-24 -26 0
-24 -27 0
-24 -28 0
-25 -26 0
-25 -27 0
-25 -28 0
-26 -27 0
-26 -28 0
-27 -28 0
-29 -30 0
-29 -31 0
-29 -32 0
-29 -33 0
-29 -34 0
-29 -35 0
-30 -31 0
-30 -32 0
-30 -33 0
-30 -34 0
-30 -35 0
-31 -32 0
-31 -33 0
-31 -34 0
-31 -35 0
-32 -33 0
-32 -34 0
-32 -35 0
-33 -34 0
-33 -35 0
-34 -35 0
-36 -37 0
-36 -38 0
-36 -39 0
-36 -40 0
-36 -41 0
-36 -42 0
-37 -38 0
-37 -39 0
-37 -40 0
-37 -41 0
-37 -42 0
-38 -39 0
-38 -40 0
-38 -41 0
-38 -42 0
-39 -40 0
-39 -41 0
-39 -42 0
-40 -41 0
-40 -42 0
-41 -42 0
-43 -44 0
-43 -45 0
-43 -46 0
-43 -47 0
-43 -48 0
-43 -49 0
-44 -45 0
-44 -46 0
-44 -47 0
-44 -48 0
-44 -49 0
-45 -46 0
-45 -47 0
-45 -48 0
-45 -49 0
-46 -47 0
-46 -48 0
-46 -49 0
-47 -48 0
-47 -49 0
-48 -49 0
-50 -51 0
-50 -52 0
-50 -53 0
-50 -54 0
-50 -55 0
-50 -56 0
-51 -52 0
-51 -53 0
-51 -54 0
-51 -55 0
-51 -56 0
-52 -53 0
-52 -54 0
-52 -55 0
-52 -56 0
-53 -54 0
-53 -55 0
-53 -56 0
-54 -55 0
-54 -56 0
-55 -56 0
-57 -58 0
-57 -59 0
-57 -60 0
-57 -61 0
-57 -62 0
-57 -63 0
-58 -59 0
-58 -60 0
-58 -61 0
-58 -62 0
-58 -63 0
-59 -60 0
-59 -61 0
-59 -62 0
-59 -63 0
-60 -61 0
-60 -62 0
-60 -63 0
-61 -62 0
-61 -63 0
-62 -63 0
-64 -65 0
-64 -66 0
-64 -67 0
-64 -68 0
-64 -69 0
-64 -70 0
-65 -66 0
-65 -67 0
-65 -68 0
-65 -69 0
-65 -70 0
-66 -67 0
-66 -68 0
-66 -69 0
-66 -70 0
-67 -68 0
-67 -69 0
-67 -70 0
-68 -69 0
-68 -70 0
-69 -70 0
-1 9 10 11 12 13 14 0
-2 8 10 11 12 13 14 0
-3 8 9 11 12 13 14 0
-4 8 9 10 12 13 14 0
-5 8 9 10 11 13 14 0
-6 8 9 10 11 12 14 0
-7 8 9 10 11 12 13 0
-1 15 16 17 18 19 20 21 0
-2 15 16 17 18 19 20 21 0
-3 15 16 17 18 19 20 21 0
-4 15 16 17 18 19 20 21 0
-5 15 16 17 18 19 20 21 0
-6 15 16 17 18 19 20 21 0
-7 15 16 17 18 19 20 21 0
-1 23 24 25 26 27 28 0
-2 22 24 25 26 27 28 0
-3 22 23 25 26 27 28 0
-4 22 23 24 26 27 28 0
-5 22 23 24 25 27 28 0
-6 22 23 24 25 26 28 0
-7 22 23 24 25 26 27 0
-1 30 31 32 33 34 35 0
-2 29 31 32 33 34 35 0
-3 29 30 32 33 34 35 0
-4 29 30 31 33 34 35 0
-5 29 30 31 32 34 35 0
-6 29 30 31 32 33 35 0
-7 29 30 31 32 33 34 0
-1 36 37 38 39 40 41 42 0
-2 36 37 38 39 40 41 42 0
-3 36 37 38 39 40 41 42 0
-4 36 37 38 39 40 41 42 0
-5 36 37 38 39 40 41 42 0
-6 36 37 38 39 40 41 42 0
-7 36 37 38 39 40 41 42 0
-1 43 44 45 46 47 48 49 0
-2 43 44 45 46 47 48 49 0
-3 43 44 45 46 47 48 49 0
-4 43 44 45 46 47 48 49 0
-5 43 44 45 46 47 48 49 0
-6 43 44 45 46 47 48 49 0
-7 43 44 45 46 47 48 49 0
-1 50 51 52 53 54 55 56 0
-2 50 51 52 53 54 55 56 0
-3 50 51 52 53 54 55 56 0
-4 50 51 52 53 54 55 56 0
-5 50 51 52 53 54 55 56 0
-6 50 51 52 53 54 55 56 0
-7 50 51 52 53 54 55 56 0
-1 57 58 59 60 61 62 63 0
-2 57 58 59 60 61 62 63 0
-3 57 58 59 60 61 62 63 0
-4 57 58 59 60 61 62 63 0
-5 57 58 59 60 61 62 63 0
-6 57 58 59 60 61 62 63 0
-7 57 58 59 60 61 62 63 0
-1 65 66 67 68 69 70 0
-2 64 66 67 68 69 70 0
-3 64 65 67 68 69 70 0
-4 64 65 66 68 69 70 0
-5 64 65 66 67 69 70 0
-6 64 65 66 67 68 70 0
-7 64 65 66 67 68 69 0
-8 2 3 4 5 6 7 0
-9 1 3 4 5 6 7 0
-10 1 2 4 5 6 7 0
-11 1 2 3 5 6 7 0
-12 1 2 3 4 6 7 0
-13 1 2 3 4 5 7 0
-14 1 2 3 4 5 6 0
-8 16 17 18 19 20 21 0
-9 15 17 18 19 20 21 0
-10 15 16 18 19 20 21 0
-11 15 16 17 19 20 21 0
-12 15 16 17 18 20 21 0
-13 15 16 17 18 19 21 0
-14 15 16 17 18 19 20 0
-8 22 23 24 25 26 27 28 0
-9 22 23 24 25 26 27 28 0
-10 22 23 24 25 26 27 28 0
-11 22 23 24 25 26 27 28 0
-12 22 23 24 25 26 27 28 0
-13 22 23 24 25 26 27 28 0
-14 22 23 24 25 26 27 28 0
-8 29 30 31 32 33 34 35 0
-9 29 30 31 32 33 34 35 0
-10 29 30 31 32 33 34 35 0
-11 29 30 31 32 33 34 35 0
-12 29 30 31 32 33 34 35 0
-13 29 30 31 32 33 34 35 0
-14 29 30 31 32 33 34 35 0
-8 37 38 39 40 41 42 0
-9 36 38 39 40 41 42 0
-10 36 37 39 40 41 42 0
-11 36 37 38 40 41 42 0
-12 36 37 38 39 41 42 0
-13 36 37 38 39 40 42 0
-14 36 37 38 39 40 41 0
-8 43 44 45 46 47 48 49 0
-9 43 44 45 46 47 48 49 0
-10 43 44 45 46 47 48 49 0
-11 43 44 45 46 47 48 49 0
-12 43 44 45 46 47 48 49 0
-13 43 44 45 46 47 48 49 0
-14 43 44 45 46 47 48 49 0
-8 50 51 52 53 54 55 56 0
-9 50 51 52 53 54 55 56 0
-10 50 51 52 53 54 55 56 0
-11 50 51 52 53 54 55 56 0
-12 50 51 52 53 54 55 56 0
-13 50 51 52 53 54 55 56 0
-14 50 51 52 53 54 55 56 0
-8 57 58 59 60 61 62 63 0
-9 57 58 59 60 61 62 63 0
-10 57 58 59 60 61 62 63 0
-11 57 58 59 60 61 62 63 0
-12 57 58 59 60 61 62 63 0
-13 57 58 59 60 61 62 63 0
-14 57 58 59 60 61 62 63 0
-8 65 66 67 68 69 70 0
-9 64 66 67 68 69 70 0
-10 64 65 67 68 69 70 0
-11 64 65 66 68 69 70 0
-12 64 65 66 67 69 70 0
-13 64 65 66 67 68 70 0
-14 64 65 66 67 68 69 0
-15 1 2 3 4 5 6 7 0
-16 1 2 3 4 5 6 7 0
-17 1 2 3 4 5 6 7 0
-18 1 2 3 4 5 6 7 0
-19 1 2 3 4 5 6 7 0
-20 1 2 3 4 5 6 7 0
-21 1 2 3 4 5 6 7 0
-15 9 10 11 12 13 14 0
-16 8 10 11 12 13 14 0
-17 8 9 11 12 13 14 0
-18 8 9 10 12 13 14 0
-19 8 9 10 11 13 14 0
-20 8 9 10 11 12 14 0
-21 8 9 10 11 12 13 0
-15 22 23 24 25 26 27 28 0
-16 22 23 24 25 26 27 28 0
-17 22 23 24 25 26 27 28 0
-18 22 23 24 25 26 27 28 0
-19 22 23 24 25 26 27 28 0
-20 22 23 24 25 26 27 28 0
-21 22 23 24 25 26 27 28 0
-15 29 30 31 32 33 34 35 0
-16 29 30 31 32 33 34 35 0
-17 29 30 31 32 33 34 35 0
-18 29 30 31 32 33 34 35 0
-19 29 30 31 32 33 34 35 0
-20 29 30 31 32 33 34 35 0
-21 29 30 31 32 33 34 35 0
-15 36 37 38 39 40 41 42 0
-16 36 37 38 39 40 41 42 0
-17 36 37 38 39 40 41 42 0
-18 36 37 38 39 40 41 42 0
-19 36 37 38 39 40 41 42 0
-20 36 37 38 39 40 41 42 0
-21 36 37 38 39 40 41 42 0
-15 43 44 45 46 47 48 49 0
-16 43 44 45 46 47 48 49 0
-17 43 44 45 46 47 48 49 0
-18 43 44 45 46 47 48 49 0
-19 43 44 45 46 47 48 49 0
-20 43 44 45 46 47 48 49 0
-21 43 44 45 46 47 48 49 0
-15 51 52 53 54 55 56 0
-16 50 52 53 54 55 56 0
-17 50 51 53 54 55 56 0
-18 50 51 52 54 55 56 0
-19 50 51 52 53 55 56 0
-20 50 51 52 53 54 56 0
-21 50 51 52 53 54 55 0
-15 58 59 60 61 62 63 0
-16 57 59 60 61 62 63 0
-17 57 58 60 61 62 63 0
-18 57 58 59 61 62 63 0
-19 57 58 59 60 62 63 0
-20 57 58 59 60 61 63 0
-21 57 58 59 60 61 62 0
-15 64 65 66 67 68 69 70 0
-16 64 65 66 67 68 69 70 0
-17 64 65 66 67 68 69 70 0
-18 64 65 66 67 68 69 70 0
-19 64 65 66 67 68 69 70 0
-20 64 65 66 67 68 69 70 0
-21 64 65 66 67 68 69 70 0
-22 2 3 4 5 6 7 0
-23 1 3 4 5 6 7 0
-24 1 2 4 5 6 7 0
-25 1 2 3 5 6 7 0
-26 1 2 3 4 6 7 0
-27 1 2 3 4 5 7 0
-28 1 2 3 4 5 6 0
-22 8 9 10 11 12 13 14 0
-23 8 9 10 11 12 13 14 0
-24 8 9 10 11 12 13 14 0
-25 8 9 10 11 12 13 14 0
-26 8 9 10 11 12 13 14 0
-27 8 9 10 11 12 13 14 0
-28 8 9 10 11 12 13 14 0
-22 15 16 17 18 19 20 21 0
-23 15 16 17 18 19 20 21 0
-24 15 16 17 18 19 20 21 0
-25 15 16 17 18 19 20 21 0
-26 15 16 17 18 19 20 21 0
-27 15 16 17 18 19 20 21 0
-28 15 16 17 18 19 20 21 0
-22 29 30 31 32 33 34 35 0
-23 29 30 31 32 33 34 35 0
-24 29 30 31 32 33 34 35 0
-25 29 30 31 32 33 34 35 0
-26 29 30 31 32 33 34 35 0
-27 29 30 31 32 33 34 35 0
-28 29 30 31 32 33 34 35 0
-22 36 37 38 39 40 41 42 0
-23 36 37 38 39 40 41 42 0
-24 36 37 38 39 40 41 42 0
-25 36 37 38 39 40 41 42 0
-26 36 37 38 39 40 41 42 0
-27 36 37 38 39 40 41 42 0
-28 36 37 38 39 40 41 42 0
-22 43 44 45 46 47 48 49 0
-23 43 44 45 46 47 48 49 0
-24 43 44 45 46 47 48 49 0
-25 43 44 45 46 47 48 49 0
-26 43 44 45 46 47 48 49 0
-27 43 44 45 46 47 48 49 0
-28 43 44 45 46 47 48 49 0
-22 50 51 52 53 54 55 56 0
-23 50 51 52 53 54 55 56 0
-24 50 51 52 53 54 55 56 0
-25 50 51 52 53 54 55 56 0
-26 50 51 52 53 54 55 56 0
-27 50 51 52 53 54 55 56 0
-28 50 51 52 53 54 55 56 0
-22 57 58 59 60 61 62 63 0
-23 57 58 59 60 61 62 63 0
-24 57 58 59 60 61 62 63 0
-25 57 58 59 60 61 62 63 0
-26 57 58 59 60 61 62 63 0
-27 57 58 59 60 61 62 63 0
-28 57 58 59 60 61 62 63 0
-22 64 65 66 67 68 69 70 0
-23 64 65 66 67 68 69 70 0
-24 64 65 66 67 68 69 70 0
-25 64 65 66 67 68 69 70 0
-26 64 65 66 67 68 69 70 0
-27 64 65 66 67 68 69 70 0
-28 64 65 66 67 68 69 70 0
-29 2 3 4 5 6 7 0
-30 1 3 4 5 6 7 0
-31 1 2 4 5 6 7 0
-32 1 2 3 5 6 7 0
-33 1 2 3 4 6 7 0
-34 1 2 3 4 5 7 0
-35 1 2 3 4 5 6 0
-29 8 9 10 11 12 13 14 0
-30 8 9 10 11 12 13 14 0
-31 8 9 10 11 12 13 14 0
-32 8 9 10 11 12 13 14 0
-33 8 9 10 11 12 13 14 0
-34 8 9 10 11 12 13 14 0
-35 8 9 10 11 12 13 14 0
-29 15 16 17 18 19 20 21 0
-30 15 16 17 18 19 20 21 0
-31 15 16 17 18 19 20 21 0
-32 15 16 17 18 19 20 21 0
-33 15 16 17 18 19 20 21 0
-34 15 16 17 18 19 20 21 0
-35 15 16 17 18 19 20 21 0
-29 22 23 24 25 26 27 28 0
-30 22 23 24 25 26 27 28 0
-31 22 23 24 25 26 27 28 0
-32 22 23 24 25 26 27 28 0
-33 22 23 24 25 26 27 28 0
-34 22 23 24 25 26 27 28 0
-35 22 23 24 25 26 27 28 0
-29 36 37 38 39 40 41 42 0
-30 36 37 38 39 40 41 42 0
-31 36 37 38 39 40 41 42 0
-32 36 37 38 39 40 41 42 0
-33 36 37 38 39 40 41 42 0
-34 36 37 38 39 40 41 42 0
-35 36 37 38 39 40 41 42 0
-29 43 44 45 46 47 48 49 0
-30 43 44 45 46 47 48 49 0
-31 43 44 45 46 47 48 49 0
-32 43 44 45 46 47 48 49 0
-33 43 44 45 46 47 48 49 0
-34 43 44 45 46 47 48 49 0
-35 43 44 45 46 47 48 49 0
-29 50 51 52 53 54 55 56 0
-30 50 51 52 53 54 55 56 0
-31 50 51 52 53 54 55 56 0
-32 50 51 52 53 54 55 56 0
-33 50 51 52 53 54 55 56 0
-34 50 51 52 53 54 55 56 0
-35 50 51 52 53 54 55 56 0
-29 58 59 60 61 62 63 0
-30 57 59 60 61 62 63 0
-31 57 58 60 61 62 63 0
-32 57 58 59 61 62 63 0
-33 57 58 59 60 62 63 0
-34 57 58 59 60 61 63 0
-35 57 58 59 60 61 62 0
-29 65 66 67 68 69 70 0
-30 64 66 67 68 69 70 0
-31 64 65 67 68 69 70 0
-32 64 65 66 68 69 70 0
-33 64 65 66 67 69 70 0
-34 64 65 66 67 68 70 0
-35 64 65 66 67 68 69 0
-36 1 2 3 4 5 6 7 0
-37 1 2 3 4 5 6 7 0
-38 1 2 3 4 5 6 7 0
-39 1 2 3 4 5 6 7 0
-40 1 2 3 4 5 6 7 0
-41 1 2 3 4 5 6 7 0
-42 1 2 3 4 5 6 7 0
-36 9 10 11 12 13 14 0
-37 8 10 11 12 13 14 0
-38 8 9 11 12 13 14 0
-39 8 9 10 12 13 14 0
-40 8 9 10 11 13 14 0
-41 8 9 10 11 12 14 0
-42 8 9 10 11 12 13 0
-36 15 16 17 18 19 20 21 0
-37 15 16 17 18 19 20 21 0
-38 15 16 17 18 19 20 21 0
-39 15 16 17 18 19 20 21 0
-40 15 16 17 18 19 20 21 0
-41 15 16 17 18 19 20 21 0
-42 15 16 17 18 19 20 21 0
-36 22 23 24 25 26 27 28 0
-37 22 23 24 25 26 27 28 0
-38 22 23 24 25 26 27 28 0
-39 22 23 24 25 26 27 28 0
-40 22 23 24 25 26 27 28 0
-41 22 23 24 25 26 27 28 0
-42 22 23 24 25 26 27 28 0
-36 29 30 31 32 33 34 35 0
-37 29 30 31 32 33 34 35 0
-38 29 30 31 32 33 34 35 0
-39 29 30 31 32 33 34 35 0
-40 29 30 31 32 33 34 35 0
-41 29 30 31 32 33 34 35 0
-42 29 30 31 32 33 34 35 0
-36 44 45 46 47 48 49 0
-37 43 45 46 47 48 49 0
-38 43 44 46 47 48 49 0
-39 43 44 45 47 48 49 0
-40 43 44 45 46 48 49 0
-41 43 44 45 46 47 49 0
-42 43 44 45 46 47 48 0
-36 51 52 53 54 55 56 0
-37 50 52 53 54 55 56 0
-38 50 51 53 54 55 56 0
-39 50 51 52 54 55 56 0
-40 50 51 52 53 55 56 0
-41 50 51 52 53 54 56 0
-42 50 51 52 53 54 55 0
-36 57 58 59 60 61 62 63 0
-37 57 58 59 60 61 62 63 0
-38 57 58 59 60 61 62 63 0
-39 57 58 59 60 61 62 63 0
-40 57 58 59 60 61 62 63 0
-41 57 58 59 60 61 62 63 0
-42 57 58 59 60 61 62 63 0
-36 64 65 66 67 68 69 70 0
-37 64 65 66 67 68 69 70 0
-38 64 65 66 67 68 69 70 0
-39 64 65 66 67 68 69 70 0
-40 64 65 66 67 68 69 70 0
-41 64 65 66 67 68 69 70 0
-42 64 65 66 67 68 69 70 0
-43 1 2 3 4 5 6 7 0
-44 1 2 3 4 5 6 7 0
-45 1 2 3 4 5 6 7 0
-46 1 2 3 4 5 6 7 0
-47 1 2 3 4 5 6 7 0
-48 1 2 3 4 5 6 7 0
-49 1 2 3 4 5 6 7 0
-43 8 9 10 11 12 13 14 0
-44 8 9 10 11 12 13 14 0
-45 8 9 10 11 12 13 14 0
-46 8 9 10 11 12 13 14 0
-47 8 9 10 11 12 13 14 0
-48 8 9 10 11 12 13 14 0
-49 8 9 10 11 12 13 14 0
-43 15 16 17 18 19 20 21 0
-44 15 16 17 18 19 20 21 0
-45 15 16 17 18 19 20 21 0
-46 15 16 17 18 19 20 21 0
-47 15 16 17 18 19 20 21 0
-48 15 16 17 18 19 20 21 0
-49 15 16 17 18 19 20 21 0
-43 22 23 24 25 26 27 28 0
-44 22 23 24 25 26 27 28 0
-45 22 23 24 25 26 27 28 0
-46 22 23 24 25 26 27 28 0
-47 22 23 24 25 26 27 28 0
-48 22 23 24 25 26 27 28 0
-49 22 23 24 25 26 27 28 0
-43 29 30 31 32 33 34 35 0
-44 29 30 31 32 33 34 35 0
-45 29 30 31 32 33 34 35 0
-46 29 30 31 32 33 34 35 0
-47 29 30 31 32 33 34 35 0
-48 29 30 31 32 33 34 35 0
-49 29 30 31 32 33 34 35 0
-43 37 38 39 40 41 42 0
-44 36 38 39 40 41 42 0
-45 36 37 39 40 41 42 0
-46 36 37 38 40 41 42 0
-47 36 37 38 39 41 42 0
-48 36 37 38 39 40 42 0
-49 36 37 38 39 40 41 0
-43 50 51 52 53 54 55 56 0
-44 50 51 52 53 54 55 56 0
-45 50 51 52 53 54 55 56 0
-46 50 51 52 53 54 55 56 0
-47 50 51 52 53 54 55 56 0
-48 50 51 52 53 54 55 56 0
-49 50 51 52 53 54 55 56 0
-43 57 58 59 60 61 62 63 0
-44 57 58 59 60 61 62 63 0
-45 57 58 59 60 61 62 63 0
-46 57 58 59 60 61 62 63 0
-47 57 58 59 60 61 62 63 0
-48 57 58 59 60 61 62 63 0
-49 57 58 59 60 61 62 63 0
-43 64 65 66 67 68 69 70 0
-44 64 65 66 67 68 69 70 0
-45 64 65 66 67 68 69 70 0
-46 64 65 66 67 68 69 70 0
-47 64 65 66 67 68 69 70 0
-48 64 65 66 67 68 69 70 0
-49 64 65 66 67 68 69 70 0
-50 1 2 3 4 5 6 7 0
-51 1 2 3 4 5 6 7 0
-52 1 2 3 4 5 6 7 0
-53 1 2 3 4 5 6 7 0
-54 1 2 3 4 5 6 7 0
-55 1 2 3 4 5 6 7 0
-56 1 2 3 4 5 6 7 0
-50 8 9 10 11 12 13 14 0
-51 8 9 10 11 12 13 14 0
-52 8 9 10 11 12 13 14 0
-53 8 9 10 11 12 13 14 0
-54 8 9 10 11 12 13 14 0
-55 8 9 10 11 12 13 14 0
-56 8 9 10 11 12 13 14 0
-50 16 17 18 19 20 21 0
-51 15 17 18 19 20 21 0
-52 15 16 18 19 20 21 0
-53 15 16 17 19 20 21 0
-54 15 16 17 18 20 21 0
-55 15 16 17 18 19 21 0
-56 15 16 17 18 19 20 0
-50 22 23 24 25 26 27 28 0
-51 22 23 24 25 26 27 28 0
-52 22 23 24 25 26 27 28 0
-53 22 23 24 25 26 27 28 0
-54 22 23 24 25 26 27 28 0
-55 22 23 24 25 26 27 28 0
-56 22 23 24 25 26 27 28 0
-50 29 30 31 32 33 34 35 0
-51 29 30 31 32 33 34 35 0
-52 29 30 31 32 33 34 35 0
-53 29 30 31 32 33 34 35 0
-54 29 30 31 32 33 34 35 0
-55 29 30 31 32 33 34 35 0
-56 29 30 31 32 33 34 35 0
-50 37 38 39 40 41 42 0
-51 36 38 39 40 41 42 0
-52 36 37 39 40 41 42 0
-53 36 37 38 40 41 42 0
-54 36 37 38 39 41 42 0
-55 36 37 38 39 40 42 0
-56 36 37 38 39 40 41 0
-50 43 44 45 46 47 48 49 0
-51 43 44 45 46 47 48 49 0
-52 43 44 45 46 47 48 49 0
-53 43 44 45 46 47 48 49 0
-54 43 44 45 46 47 48 49 0
-55 43 44 45 46 47 48 49 0
-56 43 44 45 46 47 48 49 0
-50 57 58 59 60 61 62 63 0
-51 57 58 59 60 61 62 63 0
-52 57 58 59 60 61 62 63 0
-53 57 58 59 60 61 62 63 0
-54 57 58 59 60 61 62 63 0
-55 57 58 59 60 61 62 63 0
-56 57 58 59 60 61 62 63 0
-50 64 65 66 67 68 69 70 0
-51 64 65 66 67 68 69 70 0
-52 64 65 66 67 68 69 70 0
-53 64 65 66 67 68 69 70 0
-54 64 65 66 67 68 69 70 0
-55 64 65 66 67 68 69 70 0
-56 64 65 66 67 68 69 70 0
-57 1 2 3 4 5 6 7 0
-58 1 2 3 4 5 6 7 0
-59 1 2 3 4 5 6 7 0
-60 1 2 3 4 5 6 7 0
-61 1 2 3 4 5 6 7 0
-62 1 2 3 4 5 6 7 0
-63 1 2 3 4 5 6 7 0
-57 8 9 10 11 12 13 14 0
-58 8 9 10 11 12 13 14 0
-59 8 9 10 11 12 13 14 0
-60 8 9 10 11 12 13 14 0
-61 8 9 10 11 12 13 14 0
-62 8 9 10 11 12 13 14 0
-63 8 9 10 11 12 13 14 0
-57 16 17 18 19 20 21 0
-58 15 17 18 19 20 21 0
-59 15 16 18 19 20 21 0
-60 15 16 17 19 20 21 0
-61 15 16 17 18 20 21 0
-62 15 16 17 18 19 21 0
-63 15 16 17 18 19 20 0
-57 22 23 24 25 26 27 28 0
-58 22 23 24 25 26 27 28 0
-59 22 23 24 25 26 27 28 0
-60 22 23 24 25 26 27 28 0
-61 22 23 24 25 26 27 28 0
-62 22 23 24 25 26 27 28 0
-63 22 23 24 25 26 27 28 0
-57 30 31 32 33 34 35 0
-58 29 31 32 33 34 35 0
-59 29 30 32 33 34 35 0
-60 29 30 31 33 34 35 0
-61 29 30 31 32 34 35 0
-62 29 30 31 32 33 35 0
-63 29 30 31 32 33 34 0
-57 36 37 38 39 40 41 42 0
-58 36 37 38 39 40 41 42 0
-59 36 37 38 39 40 41 42 0
-60 36 37 38 39 40 41 42 0
-61 36 37 38 39 40 41 42 0
-62 36 37 38 39 40 41 42 0
-63 36 37 38 39 40 41 42 0
-57 43 44 45 46 47 48 49 0
-58 43 44 45 46 47 48 49 0
-59 43 44 45 46 47 48 49 0
-60 43 44 45 46 47 48 49 0
-61 43 44 45 46 47 48 49 0
-62 43 44 45 46 47 48 49 0
-63 43 44 45 46 47 48 49 0
-57 50 51 52 53 54 55 56 0
-58 50 51 52 53 54 55 56 0
-59 50 51 52 53 54 55 56 0
-60 50 51 52 53 54 55 56 0
-61 50 51 52 53 54 55 56 0
-62 50 51 52 53 54 55 56 0
-63 50 51 52 53 54 55 56 0
-57 64 65 66 67 68 69 70 0
-58 64 65 66 67 68 69 70 0
-59 64 65 66 67 68 69 70 0
-60 64 65 66 67 68 69 70 0
-61 64 65 66 67 68 69 70 0
-62 64 65 66 67 68 69 70 0
-63 64 65 66 67 68 69 70 0
-64 2 3 4 5 6 7 0
-65 1 3 4 5 6 7 0
-66 1 2 4 5 6 7 0
-67 1 2 3 5 6 7 0
-68 1 2 3 4 6 7 0
-69 1 2 3 4 5 7 0
-70 1 2 3 4 5 6 0
-64 9 10 11 12 13 14 0
-65 8 10 11 12 13 14 0
-66 8 9 11 12 13 14 0
-67 8 9 10 12 13 14 0
-68 8 9 10 11 13 14 0
-69 8 9 10 11 12 14 0
-70 8 9 10 11 12 13 0
-64 15 16 17 18 19 20 21 0
-65 15 16 17 18 19 20 21 0
-66 15 16 17 18 19 20 21 0
-67 15 16 17 18 19 20 21 0
-68 15 16 17 18 19 20 21 0
-69 15 16 17 18 19 20 21 0
-70 15 16 17 18 19 20 21 0
-64 22 23 24 25 26 27 28 0
-65 22 23 24 25 26 27 28 0
-66 22 23 24 25 26 27 28 0
-67 22 23 24 25 26 27 28 0
-68 22 23 24 25 26 27 28 0
-69 22 23 24 25 26 27 28 0
-70 22 23 24 25 26 27 28 0
-64 30 31 32 33 34 35 0
-65 29 31 32 33 34 35 0
-66 29 30 32 33 34 35 0
-67 29 30 31 33 34 35 0
-68 29 30 31 32 34 35 0
-69 29 30 31 32 33 35 0
-70 29 30 31 32 33 34 0
-64 36 37 38 39 40 41 42 0
-65 36 37 38 39 40 41 42 0
-66 36 37 38 39 40 41 42 0
-67 36 37 38 39 40 41 42 0
-68 36 37 38 39 40 41 42 0
-69 36 37 38 39 40 41 42 0
-70 36 37 38 39 40 41 42 0
-64 43 44 45 46 47 48 49 0
-65 43 44 45 46 47 48 49 0
-66 43 44 45 46 47 48 49 0
-67 43 44 45 46 47 48 49 0
-68 43 44 45 46 47 48 49 0
-69 43 44 45 46 47 48 49 0
-70 43 44 45 46 47 48 49 0
-64 50 51 52 53 54 55 56 0
-65 50 51 52 53 54 55 56 0
-66 50 51 52 53 54 55 56 0
-67 50 51 52 53 54 55 56 0
-68 50 51 52 53 54 55 56 0
-69 50 51 52 53 54 55 56 0
-70 50 51 52 53 54 55 56 0
-64 57 58 59 60 61 62 63 0
-65 57 58 59 60 61 62 63 0
-66 57 58 59 60 61 62 63 0
-67 57 58 59 60 61 62 63 0
-68 57 58 59 60 61 62 63 0
-69 57 58 59 60 61 62 63 0
-70 57 58 59 60 61 62 63 0
